1071
0	62	128	200	284	331	369	462	555	639
0	47	162	261	358	451	480	544	624	702
0	62	134	197	223	261	331	371	470	579
0	86	251	319	407	443	546	705	740	817
0	68	108	137	200	330	451	481	579	636
0	88	319	451	546	740	826	848	906	1006
47	144	197	254	407	555	611	637	691	826
85	156	370	391	488	602	702	895	976	1006
0	68	153	254	340	406	462	544	677	724
0	87	137	223	281	391	545	637	677	769
